* #variable= 611 #constraint= 704 
+1 x378 -1 x27 = 0 ;
+1 x378 -1 x560 = 0 ;
-1 x27 +1 x1 >= 0 ;
-1 x27 +1 x14 >= 0 ;
+1 x27 -1 x1 -1 x14 >= -1 ;
+1 x27 +2 x40 +4 x53 +8 x66 +16 x79 +32 x92 +64 x105 +128 x118 +256 x131 +512 x144 +1024 x157 +2048 x170 +4096 x183 +2 x28 +4 x41 +8 x54 +16 x67 +32 x80 +64 x93 +128 x106 +256 x119 +512 x132 +1024 x145 +2048 x158 +4096 x171 +8192 x184 +4 x29 +8 x42 +16 x55 +32 x68 +64 x81 +128 x94 +256 x107 +512 x120 +1024 x133 +2048 x146 +4096 x159 +8192 x172 +16384 x185 +8 x30 +16 x43 +32 x56 +64 x69 +128 x82 +256 x95 +512 x108 +1024 x121 +2048 x134 +4096 x147 +8192 x160 +16384 x173 +32768 x186 +16 x31 +32 x44 +64 x57 +128 x70 +256 x83 +512 x96 +1024 x109 +2048 x122 +4096 x135 +8192 x148 +16384 x161 +32768 x174 +65536 x187 +32 x32 +64 x45 +128 x58 +256 x71 +512 x84 +1024 x97 +2048 x110 +4096 x123 +8192 x136 +16384 x149 +32768 x162 +65536 x175 +131072 x188 +64 x33 +128 x46 +256 x59 +512 x72 +1024 x85 +2048 x98 +4096 x111 +8192 x124 +16384 x137 +32768 x150 +65536 x163 +131072 x176 +262144 x189 +128 x34 +256 x47 +512 x60 +1024 x73 +2048 x86 +4096 x99 +8192 x112 +16384 x125 +32768 x138 +65536 x151 +131072 x164 +262144 x177 +524288 x190 +256 x35 +512 x48 +1024 x61 +2048 x74 +4096 x87 +8192 x100 +16384 x113 +32768 x126 +65536 x139 +131072 x152 +262144 x165 +524288 x178 +1048576 x191 +512 x36 +1024 x49 +2048 x62 +4096 x75 +8192 x88 +16384 x101 +32768 x114 +65536 x127 +131072 x140 +262144 x153 +524288 x166 +1048576 x179 +2097152 x192 +1024 x37 +2048 x50 +4096 x63 +8192 x76 +16384 x89 +32768 x102 +65536 x115 +131072 x128 +262144 x141 +524288 x154 +1048576 x167 +2097152 x180 +4194304 x193 +2048 x38 +4096 x51 +8192 x64 +16384 x77 +32768 x90 +65536 x103 +131072 x116 +262144 x129 +524288 x142 +1048576 x155 +2097152 x168 +4194304 x181 +8388608 x194 +4096 x39 +8192 x52 +16384 x65 +32768 x78 +65536 x91 +131072 x104 +262144 x117 +524288 x130 +1048576 x143 +2097152 x156 +4194304 x169 +8388608 x182 +16777216 x195 -1 x586 -2 x587 -4 x588 -8 x589 -16 x590 -32 x591 -64 x592 -128 x593 -256 x594 -512 x595 -1024 x596 -2048 x597 -4096 x598 -8192 x599 -16384 x600 -32768 x601 -65536 x602 -131072 x603 -262144 x604 -524288 x605 -1048576 x606 -2097152 x607 -4194304 x608 -8388608 x609 -16777216 x610 -33554432 x611 = 0; 
+1 x586 -1 x560 +2 x587 -2 x561 +4 x588 -4 x562 +8 x589 -8 x563 +16 x590 -16 x564 +32 x591 -32 x565 +64 x592 -64 x566 +128 x593 -128 x567 +256 x594 -256 x568 +512 x595 -512 x569 +1024 x596 -1024 x570 +2048 x597 -2048 x571 +4096 x598 -4096 x572 +8192 x599 -8192 x573 +16384 x600 -16384 x574 +32768 x601 -32768 x575 +65536 x602 -65536 x576 +131072 x603 -131072 x577 +262144 x604 -262144 x578 +524288 x605 -524288 x579 +1048576 x606 -1048576 x580 +2097152 x607 -2097152 x581 +4194304 x608 -4194304 x582 +8388608 x609 -8388608 x583 +16777216 x610 -16777216 x584 +33554432 x611 -33554432 x585 >= 1 ;
+1 x392 -1 x40 = 0 ;
+2 x197 +1 x379 -1 x28 -1 x392 = 0 ;
+1 x379 -1 x561 = 0 ;
-1 x40 +1 x2 >= 0 ;
-1 x40 +1 x14 >= 0 ;
+1 x40 -1 x2 -1 x14 >= -1 ;
-1 x28 +1 x1 >= 0 ;
-1 x28 +1 x15 >= 0 ;
+1 x28 -1 x1 -1 x15 >= -1 ;
+1 x406 -1 x53 = 0 ;
+2 x211 +1 x393 -1 x41 -1 x197 -1 x406 = 0 ;
+2 x198 +1 x380 -1 x29 -1 x393 = 0 ;
+1 x380 -1 x562 = 0 ;
-1 x53 +1 x3 >= 0 ;
-1 x53 +1 x14 >= 0 ;
+1 x53 -1 x3 -1 x14 >= -1 ;
-1 x41 +1 x2 >= 0 ;
-1 x41 +1 x15 >= 0 ;
+1 x41 -1 x2 -1 x15 >= -1 ;
-1 x29 +1 x1 >= 0 ;
-1 x29 +1 x16 >= 0 ;
+1 x29 -1 x1 -1 x16 >= -1 ;
+1 x420 -1 x66 = 0 ;
+2 x225 +1 x407 -1 x54 -1 x211 -1 x420 = 0 ;
+2 x212 +1 x394 -1 x42 -1 x198 -1 x407 = 0 ;
+2 x199 +1 x381 -1 x30 -1 x394 = 0 ;
+1 x381 -1 x563 = 0 ;
-1 x66 +1 x4 >= 0 ;
-1 x66 +1 x14 >= 0 ;
+1 x66 -1 x4 -1 x14 >= -1 ;
-1 x54 +1 x3 >= 0 ;
-1 x54 +1 x15 >= 0 ;
+1 x54 -1 x3 -1 x15 >= -1 ;
-1 x42 +1 x2 >= 0 ;
-1 x42 +1 x16 >= 0 ;
+1 x42 -1 x2 -1 x16 >= -1 ;
-1 x30 +1 x1 >= 0 ;
-1 x30 +1 x17 >= 0 ;
+1 x30 -1 x1 -1 x17 >= -1 ;
+1 x434 -1 x79 = 0 ;
+2 x239 +1 x421 -1 x67 -1 x225 -1 x434 = 0 ;
+2 x226 +1 x408 -1 x55 -1 x212 -1 x421 = 0 ;
+2 x213 +1 x395 -1 x43 -1 x199 -1 x408 = 0 ;
+2 x200 +1 x382 -1 x31 -1 x395 = 0 ;
+1 x382 -1 x564 = 0 ;
-1 x79 +1 x5 >= 0 ;
-1 x79 +1 x14 >= 0 ;
+1 x79 -1 x5 -1 x14 >= -1 ;
-1 x67 +1 x4 >= 0 ;
-1 x67 +1 x15 >= 0 ;
+1 x67 -1 x4 -1 x15 >= -1 ;
-1 x55 +1 x3 >= 0 ;
-1 x55 +1 x16 >= 0 ;
+1 x55 -1 x3 -1 x16 >= -1 ;
-1 x43 +1 x2 >= 0 ;
-1 x43 +1 x17 >= 0 ;
+1 x43 -1 x2 -1 x17 >= -1 ;
-1 x31 +1 x1 >= 0 ;
-1 x31 +1 x18 >= 0 ;
+1 x31 -1 x1 -1 x18 >= -1 ;
+1 x448 -1 x92 = 0 ;
+2 x253 +1 x435 -1 x80 -1 x239 -1 x448 = 0 ;
+2 x240 +1 x422 -1 x68 -1 x226 -1 x435 = 0 ;
+2 x227 +1 x409 -1 x56 -1 x213 -1 x422 = 0 ;
+2 x214 +1 x396 -1 x44 -1 x200 -1 x409 = 0 ;
+2 x201 +1 x383 -1 x32 -1 x396 = 0 ;
+1 x383 -1 x565 = 0 ;
-1 x92 +1 x6 >= 0 ;
-1 x92 +1 x14 >= 0 ;
+1 x92 -1 x6 -1 x14 >= -1 ;
-1 x80 +1 x5 >= 0 ;
-1 x80 +1 x15 >= 0 ;
+1 x80 -1 x5 -1 x15 >= -1 ;
-1 x68 +1 x4 >= 0 ;
-1 x68 +1 x16 >= 0 ;
+1 x68 -1 x4 -1 x16 >= -1 ;
-1 x56 +1 x3 >= 0 ;
-1 x56 +1 x17 >= 0 ;
+1 x56 -1 x3 -1 x17 >= -1 ;
-1 x44 +1 x2 >= 0 ;
-1 x44 +1 x18 >= 0 ;
+1 x44 -1 x2 -1 x18 >= -1 ;
-1 x32 +1 x1 >= 0 ;
-1 x32 +1 x19 >= 0 ;
+1 x32 -1 x1 -1 x19 >= -1 ;
+1 x462 -1 x105 = 0 ;
+2 x267 +1 x449 -1 x93 -1 x253 -1 x462 = 0 ;
+2 x254 +1 x436 -1 x81 -1 x240 -1 x449 = 0 ;
+2 x241 +1 x423 -1 x69 -1 x227 -1 x436 = 0 ;
+2 x228 +1 x410 -1 x57 -1 x214 -1 x423 = 0 ;
+2 x215 +1 x397 -1 x45 -1 x201 -1 x410 = 0 ;
+2 x202 +1 x384 -1 x33 -1 x397 = 0 ;
+1 x384 -1 x566 = 0 ;
-1 x105 +1 x7 >= 0 ;
-1 x105 +1 x14 >= 0 ;
+1 x105 -1 x7 -1 x14 >= -1 ;
-1 x93 +1 x6 >= 0 ;
-1 x93 +1 x15 >= 0 ;
+1 x93 -1 x6 -1 x15 >= -1 ;
-1 x81 +1 x5 >= 0 ;
-1 x81 +1 x16 >= 0 ;
+1 x81 -1 x5 -1 x16 >= -1 ;
-1 x69 +1 x4 >= 0 ;
-1 x69 +1 x17 >= 0 ;
+1 x69 -1 x4 -1 x17 >= -1 ;
-1 x57 +1 x3 >= 0 ;
-1 x57 +1 x18 >= 0 ;
+1 x57 -1 x3 -1 x18 >= -1 ;
-1 x45 +1 x2 >= 0 ;
-1 x45 +1 x19 >= 0 ;
+1 x45 -1 x2 -1 x19 >= -1 ;
-1 x33 +1 x1 >= 0 ;
-1 x33 +1 x20 >= 0 ;
+1 x33 -1 x1 -1 x20 >= -1 ;
+1 x476 -1 x118 = 0 ;
+2 x281 +1 x463 -1 x106 -1 x267 -1 x476 = 0 ;
+2 x268 +1 x450 -1 x94 -1 x254 -1 x463 = 0 ;
+2 x255 +1 x437 -1 x82 -1 x241 -1 x450 = 0 ;
+2 x242 +1 x424 -1 x70 -1 x228 -1 x437 = 0 ;
+2 x229 +1 x411 -1 x58 -1 x215 -1 x424 = 0 ;
+2 x216 +1 x398 -1 x46 -1 x202 -1 x411 = 0 ;
+2 x203 +1 x385 -1 x34 -1 x398 = 0 ;
+1 x385 -1 x567 = 0 ;
-1 x118 +1 x8 >= 0 ;
-1 x118 +1 x14 >= 0 ;
+1 x118 -1 x8 -1 x14 >= -1 ;
-1 x106 +1 x7 >= 0 ;
-1 x106 +1 x15 >= 0 ;
+1 x106 -1 x7 -1 x15 >= -1 ;
-1 x94 +1 x6 >= 0 ;
-1 x94 +1 x16 >= 0 ;
+1 x94 -1 x6 -1 x16 >= -1 ;
-1 x82 +1 x5 >= 0 ;
-1 x82 +1 x17 >= 0 ;
+1 x82 -1 x5 -1 x17 >= -1 ;
-1 x70 +1 x4 >= 0 ;
-1 x70 +1 x18 >= 0 ;
+1 x70 -1 x4 -1 x18 >= -1 ;
-1 x58 +1 x3 >= 0 ;
-1 x58 +1 x19 >= 0 ;
+1 x58 -1 x3 -1 x19 >= -1 ;
-1 x46 +1 x2 >= 0 ;
-1 x46 +1 x20 >= 0 ;
+1 x46 -1 x2 -1 x20 >= -1 ;
-1 x34 +1 x1 >= 0 ;
-1 x34 +1 x21 >= 0 ;
+1 x34 -1 x1 -1 x21 >= -1 ;
+1 x490 -1 x131 = 0 ;
+2 x295 +1 x477 -1 x119 -1 x281 -1 x490 = 0 ;
+2 x282 +1 x464 -1 x107 -1 x268 -1 x477 = 0 ;
+2 x269 +1 x451 -1 x95 -1 x255 -1 x464 = 0 ;
+2 x256 +1 x438 -1 x83 -1 x242 -1 x451 = 0 ;
+2 x243 +1 x425 -1 x71 -1 x229 -1 x438 = 0 ;
+2 x230 +1 x412 -1 x59 -1 x216 -1 x425 = 0 ;
+2 x217 +1 x399 -1 x47 -1 x203 -1 x412 = 0 ;
+2 x204 +1 x386 -1 x35 -1 x399 = 0 ;
+1 x386 -1 x568 = 0 ;
-1 x131 +1 x9 >= 0 ;
-1 x131 +1 x14 >= 0 ;
+1 x131 -1 x9 -1 x14 >= -1 ;
-1 x119 +1 x8 >= 0 ;
-1 x119 +1 x15 >= 0 ;
+1 x119 -1 x8 -1 x15 >= -1 ;
-1 x107 +1 x7 >= 0 ;
-1 x107 +1 x16 >= 0 ;
+1 x107 -1 x7 -1 x16 >= -1 ;
-1 x95 +1 x6 >= 0 ;
-1 x95 +1 x17 >= 0 ;
+1 x95 -1 x6 -1 x17 >= -1 ;
-1 x83 +1 x5 >= 0 ;
-1 x83 +1 x18 >= 0 ;
+1 x83 -1 x5 -1 x18 >= -1 ;
-1 x71 +1 x4 >= 0 ;
-1 x71 +1 x19 >= 0 ;
+1 x71 -1 x4 -1 x19 >= -1 ;
-1 x59 +1 x3 >= 0 ;
-1 x59 +1 x20 >= 0 ;
+1 x59 -1 x3 -1 x20 >= -1 ;
-1 x47 +1 x2 >= 0 ;
-1 x47 +1 x21 >= 0 ;
+1 x47 -1 x2 -1 x21 >= -1 ;
-1 x35 +1 x1 >= 0 ;
-1 x35 +1 x22 >= 0 ;
+1 x35 -1 x1 -1 x22 >= -1 ;
+1 x504 -1 x144 = 0 ;
+2 x309 +1 x491 -1 x132 -1 x295 -1 x504 = 0 ;
+2 x296 +1 x478 -1 x120 -1 x282 -1 x491 = 0 ;
+2 x283 +1 x465 -1 x108 -1 x269 -1 x478 = 0 ;
+2 x270 +1 x452 -1 x96 -1 x256 -1 x465 = 0 ;
+2 x257 +1 x439 -1 x84 -1 x243 -1 x452 = 0 ;
+2 x244 +1 x426 -1 x72 -1 x230 -1 x439 = 0 ;
+2 x231 +1 x413 -1 x60 -1 x217 -1 x426 = 0 ;
+2 x218 +1 x400 -1 x48 -1 x204 -1 x413 = 0 ;
+2 x205 +1 x387 -1 x36 -1 x400 = 0 ;
+1 x387 -1 x569 = 0 ;
-1 x144 +1 x10 >= 0 ;
-1 x144 +1 x14 >= 0 ;
+1 x144 -1 x10 -1 x14 >= -1 ;
-1 x132 +1 x9 >= 0 ;
-1 x132 +1 x15 >= 0 ;
+1 x132 -1 x9 -1 x15 >= -1 ;
-1 x120 +1 x8 >= 0 ;
-1 x120 +1 x16 >= 0 ;
+1 x120 -1 x8 -1 x16 >= -1 ;
-1 x108 +1 x7 >= 0 ;
-1 x108 +1 x17 >= 0 ;
+1 x108 -1 x7 -1 x17 >= -1 ;
-1 x96 +1 x6 >= 0 ;
-1 x96 +1 x18 >= 0 ;
+1 x96 -1 x6 -1 x18 >= -1 ;
-1 x84 +1 x5 >= 0 ;
-1 x84 +1 x19 >= 0 ;
+1 x84 -1 x5 -1 x19 >= -1 ;
-1 x72 +1 x4 >= 0 ;
-1 x72 +1 x20 >= 0 ;
+1 x72 -1 x4 -1 x20 >= -1 ;
-1 x60 +1 x3 >= 0 ;
-1 x60 +1 x21 >= 0 ;
+1 x60 -1 x3 -1 x21 >= -1 ;
-1 x48 +1 x2 >= 0 ;
-1 x48 +1 x22 >= 0 ;
+1 x48 -1 x2 -1 x22 >= -1 ;
-1 x36 +1 x1 >= 0 ;
-1 x36 +1 x23 >= 0 ;
+1 x36 -1 x1 -1 x23 >= -1 ;
+1 x518 -1 x157 = 0 ;
+2 x323 +1 x505 -1 x145 -1 x309 -1 x518 = 0 ;
+2 x310 +1 x492 -1 x133 -1 x296 -1 x505 = 0 ;
+2 x297 +1 x479 -1 x121 -1 x283 -1 x492 = 0 ;
+2 x284 +1 x466 -1 x109 -1 x270 -1 x479 = 0 ;
+2 x271 +1 x453 -1 x97 -1 x257 -1 x466 = 0 ;
+2 x258 +1 x440 -1 x85 -1 x244 -1 x453 = 0 ;
+2 x245 +1 x427 -1 x73 -1 x231 -1 x440 = 0 ;
+2 x232 +1 x414 -1 x61 -1 x218 -1 x427 = 0 ;
+2 x219 +1 x401 -1 x49 -1 x205 -1 x414 = 0 ;
+2 x206 +1 x388 -1 x37 -1 x401 = 0 ;
+1 x388 -1 x570 = 0 ;
-1 x157 +1 x11 >= 0 ;
-1 x157 +1 x14 >= 0 ;
+1 x157 -1 x11 -1 x14 >= -1 ;
-1 x145 +1 x10 >= 0 ;
-1 x145 +1 x15 >= 0 ;
+1 x145 -1 x10 -1 x15 >= -1 ;
-1 x133 +1 x9 >= 0 ;
-1 x133 +1 x16 >= 0 ;
+1 x133 -1 x9 -1 x16 >= -1 ;
-1 x121 +1 x8 >= 0 ;
-1 x121 +1 x17 >= 0 ;
+1 x121 -1 x8 -1 x17 >= -1 ;
-1 x109 +1 x7 >= 0 ;
-1 x109 +1 x18 >= 0 ;
+1 x109 -1 x7 -1 x18 >= -1 ;
-1 x97 +1 x6 >= 0 ;
-1 x97 +1 x19 >= 0 ;
+1 x97 -1 x6 -1 x19 >= -1 ;
-1 x85 +1 x5 >= 0 ;
-1 x85 +1 x20 >= 0 ;
+1 x85 -1 x5 -1 x20 >= -1 ;
-1 x73 +1 x4 >= 0 ;
-1 x73 +1 x21 >= 0 ;
+1 x73 -1 x4 -1 x21 >= -1 ;
-1 x61 +1 x3 >= 0 ;
-1 x61 +1 x22 >= 0 ;
+1 x61 -1 x3 -1 x22 >= -1 ;
-1 x49 +1 x2 >= 0 ;
-1 x49 +1 x23 >= 0 ;
+1 x49 -1 x2 -1 x23 >= -1 ;
-1 x37 +1 x1 >= 0 ;
-1 x37 +1 x24 >= 0 ;
+1 x37 -1 x1 -1 x24 >= -1 ;
+1 x532 -1 x170 = 0 ;
+2 x337 +1 x519 -1 x158 -1 x323 -1 x532 = 0 ;
+2 x324 +1 x506 -1 x146 -1 x310 -1 x519 = 0 ;
+2 x311 +1 x493 -1 x134 -1 x297 -1 x506 = 0 ;
+2 x298 +1 x480 -1 x122 -1 x284 -1 x493 = 0 ;
+2 x285 +1 x467 -1 x110 -1 x271 -1 x480 = 0 ;
+2 x272 +1 x454 -1 x98 -1 x258 -1 x467 = 0 ;
+2 x259 +1 x441 -1 x86 -1 x245 -1 x454 = 0 ;
+2 x246 +1 x428 -1 x74 -1 x232 -1 x441 = 0 ;
+2 x233 +1 x415 -1 x62 -1 x219 -1 x428 = 0 ;
+2 x220 +1 x402 -1 x50 -1 x206 -1 x415 = 0 ;
+2 x207 +1 x389 -1 x38 -1 x402 = 0 ;
+1 x389 -1 x571 = 0 ;
-1 x170 +1 x12 >= 0 ;
-1 x170 +1 x14 >= 0 ;
+1 x170 -1 x12 -1 x14 >= -1 ;
-1 x158 +1 x11 >= 0 ;
-1 x158 +1 x15 >= 0 ;
+1 x158 -1 x11 -1 x15 >= -1 ;
-1 x146 +1 x10 >= 0 ;
-1 x146 +1 x16 >= 0 ;
+1 x146 -1 x10 -1 x16 >= -1 ;
-1 x134 +1 x9 >= 0 ;
-1 x134 +1 x17 >= 0 ;
+1 x134 -1 x9 -1 x17 >= -1 ;
-1 x122 +1 x8 >= 0 ;
-1 x122 +1 x18 >= 0 ;
+1 x122 -1 x8 -1 x18 >= -1 ;
-1 x110 +1 x7 >= 0 ;
-1 x110 +1 x19 >= 0 ;
+1 x110 -1 x7 -1 x19 >= -1 ;
-1 x98 +1 x6 >= 0 ;
-1 x98 +1 x20 >= 0 ;
+1 x98 -1 x6 -1 x20 >= -1 ;
-1 x86 +1 x5 >= 0 ;
-1 x86 +1 x21 >= 0 ;
+1 x86 -1 x5 -1 x21 >= -1 ;
-1 x74 +1 x4 >= 0 ;
-1 x74 +1 x22 >= 0 ;
+1 x74 -1 x4 -1 x22 >= -1 ;
-1 x62 +1 x3 >= 0 ;
-1 x62 +1 x23 >= 0 ;
+1 x62 -1 x3 -1 x23 >= -1 ;
-1 x50 +1 x2 >= 0 ;
-1 x50 +1 x24 >= 0 ;
+1 x50 -1 x2 -1 x24 >= -1 ;
-1 x38 +1 x1 >= 0 ;
-1 x38 +1 x25 >= 0 ;
+1 x38 -1 x1 -1 x25 >= -1 ;
+1 x546 -1 x183 = 0 ;
+2 x351 +1 x533 -1 x171 -1 x337 -1 x546 = 0 ;
+2 x338 +1 x520 -1 x159 -1 x324 -1 x533 = 0 ;
+2 x325 +1 x507 -1 x147 -1 x311 -1 x520 = 0 ;
+2 x312 +1 x494 -1 x135 -1 x298 -1 x507 = 0 ;
+2 x299 +1 x481 -1 x123 -1 x285 -1 x494 = 0 ;
+2 x286 +1 x468 -1 x111 -1 x272 -1 x481 = 0 ;
+2 x273 +1 x455 -1 x99 -1 x259 -1 x468 = 0 ;
+2 x260 +1 x442 -1 x87 -1 x246 -1 x455 = 0 ;
+2 x247 +1 x429 -1 x75 -1 x233 -1 x442 = 0 ;
+2 x234 +1 x416 -1 x63 -1 x220 -1 x429 = 0 ;
+2 x221 +1 x403 -1 x51 -1 x207 -1 x416 = 0 ;
+2 x208 +1 x390 -1 x39 -1 x403 = 0 ;
+1 x390 -1 x572 = 0 ;
-1 x183 +1 x13 >= 0 ;
-1 x183 +1 x14 >= 0 ;
+1 x183 -1 x13 -1 x14 >= -1 ;
-1 x171 +1 x12 >= 0 ;
-1 x171 +1 x15 >= 0 ;
+1 x171 -1 x12 -1 x15 >= -1 ;
-1 x159 +1 x11 >= 0 ;
-1 x159 +1 x16 >= 0 ;
+1 x159 -1 x11 -1 x16 >= -1 ;
-1 x147 +1 x10 >= 0 ;
-1 x147 +1 x17 >= 0 ;
+1 x147 -1 x10 -1 x17 >= -1 ;
-1 x135 +1 x9 >= 0 ;
-1 x135 +1 x18 >= 0 ;
+1 x135 -1 x9 -1 x18 >= -1 ;
-1 x123 +1 x8 >= 0 ;
-1 x123 +1 x19 >= 0 ;
+1 x123 -1 x8 -1 x19 >= -1 ;
-1 x111 +1 x7 >= 0 ;
-1 x111 +1 x20 >= 0 ;
+1 x111 -1 x7 -1 x20 >= -1 ;
-1 x99 +1 x6 >= 0 ;
-1 x99 +1 x21 >= 0 ;
+1 x99 -1 x6 -1 x21 >= -1 ;
-1 x87 +1 x5 >= 0 ;
-1 x87 +1 x22 >= 0 ;
+1 x87 -1 x5 -1 x22 >= -1 ;
-1 x75 +1 x4 >= 0 ;
-1 x75 +1 x23 >= 0 ;
+1 x75 -1 x4 -1 x23 >= -1 ;
-1 x63 +1 x3 >= 0 ;
-1 x63 +1 x24 >= 0 ;
+1 x63 -1 x3 -1 x24 >= -1 ;
-1 x51 +1 x2 >= 0 ;
-1 x51 +1 x25 >= 0 ;
+1 x51 -1 x2 -1 x25 >= -1 ;
-1 x39 +1 x1 >= 0 ;
-1 x39 +1 x26 >= 0 ;
+1 x39 -1 x1 -1 x26 >= -1 ;
+2 x365 +1 x547 -1 x184 -1 x351 = 0 ;
+2 x352 +1 x534 -1 x172 -1 x338 -1 x547 = 0 ;
+2 x339 +1 x521 -1 x160 -1 x325 -1 x534 = 0 ;
+2 x326 +1 x508 -1 x148 -1 x312 -1 x521 = 0 ;
+2 x313 +1 x495 -1 x136 -1 x299 -1 x508 = 0 ;
+2 x300 +1 x482 -1 x124 -1 x286 -1 x495 = 0 ;
+2 x287 +1 x469 -1 x112 -1 x273 -1 x482 = 0 ;
+2 x274 +1 x456 -1 x100 -1 x260 -1 x469 = 0 ;
+2 x261 +1 x443 -1 x88 -1 x247 -1 x456 = 0 ;
+2 x248 +1 x430 -1 x76 -1 x234 -1 x443 = 0 ;
+2 x235 +1 x417 -1 x64 -1 x221 -1 x430 = 0 ;
+2 x222 +1 x404 -1 x52 -1 x208 -1 x417 = 0 ;
+1 x404 -1 x573 = 0 ;
-1 x184 +1 x13 >= 0 ;
-1 x184 +1 x15 >= 0 ;
+1 x184 -1 x13 -1 x15 >= -1 ;
-1 x172 +1 x12 >= 0 ;
-1 x172 +1 x16 >= 0 ;
+1 x172 -1 x12 -1 x16 >= -1 ;
-1 x160 +1 x11 >= 0 ;
-1 x160 +1 x17 >= 0 ;
+1 x160 -1 x11 -1 x17 >= -1 ;
-1 x148 +1 x10 >= 0 ;
-1 x148 +1 x18 >= 0 ;
+1 x148 -1 x10 -1 x18 >= -1 ;
-1 x136 +1 x9 >= 0 ;
-1 x136 +1 x19 >= 0 ;
+1 x136 -1 x9 -1 x19 >= -1 ;
-1 x124 +1 x8 >= 0 ;
-1 x124 +1 x20 >= 0 ;
+1 x124 -1 x8 -1 x20 >= -1 ;
-1 x112 +1 x7 >= 0 ;
-1 x112 +1 x21 >= 0 ;
+1 x112 -1 x7 -1 x21 >= -1 ;
-1 x100 +1 x6 >= 0 ;
-1 x100 +1 x22 >= 0 ;
+1 x100 -1 x6 -1 x22 >= -1 ;
-1 x88 +1 x5 >= 0 ;
-1 x88 +1 x23 >= 0 ;
+1 x88 -1 x5 -1 x23 >= -1 ;
-1 x76 +1 x4 >= 0 ;
-1 x76 +1 x24 >= 0 ;
+1 x76 -1 x4 -1 x24 >= -1 ;
-1 x64 +1 x3 >= 0 ;
-1 x64 +1 x25 >= 0 ;
+1 x64 -1 x3 -1 x25 >= -1 ;
-1 x52 +1 x2 >= 0 ;
-1 x52 +1 x26 >= 0 ;
+1 x52 -1 x2 -1 x26 >= -1 ;
+2 x366 +1 x548 -1 x185 -1 x352 -1 x365 = 0 ;
+2 x353 +1 x535 -1 x173 -1 x339 -1 x548 = 0 ;
+2 x340 +1 x522 -1 x161 -1 x326 -1 x535 = 0 ;
+2 x327 +1 x509 -1 x149 -1 x313 -1 x522 = 0 ;
+2 x314 +1 x496 -1 x137 -1 x300 -1 x509 = 0 ;
+2 x301 +1 x483 -1 x125 -1 x287 -1 x496 = 0 ;
+2 x288 +1 x470 -1 x113 -1 x274 -1 x483 = 0 ;
+2 x275 +1 x457 -1 x101 -1 x261 -1 x470 = 0 ;
+2 x262 +1 x444 -1 x89 -1 x248 -1 x457 = 0 ;
+2 x249 +1 x431 -1 x77 -1 x235 -1 x444 = 0 ;
+2 x236 +1 x418 -1 x65 -1 x222 -1 x431 = 0 ;
+1 x418 -1 x574 = 0 ;
-1 x185 +1 x13 >= 0 ;
-1 x185 +1 x16 >= 0 ;
+1 x185 -1 x13 -1 x16 >= -1 ;
-1 x173 +1 x12 >= 0 ;
-1 x173 +1 x17 >= 0 ;
+1 x173 -1 x12 -1 x17 >= -1 ;
-1 x161 +1 x11 >= 0 ;
-1 x161 +1 x18 >= 0 ;
+1 x161 -1 x11 -1 x18 >= -1 ;
-1 x149 +1 x10 >= 0 ;
-1 x149 +1 x19 >= 0 ;
+1 x149 -1 x10 -1 x19 >= -1 ;
-1 x137 +1 x9 >= 0 ;
-1 x137 +1 x20 >= 0 ;
+1 x137 -1 x9 -1 x20 >= -1 ;
-1 x125 +1 x8 >= 0 ;
-1 x125 +1 x21 >= 0 ;
+1 x125 -1 x8 -1 x21 >= -1 ;
-1 x113 +1 x7 >= 0 ;
-1 x113 +1 x22 >= 0 ;
+1 x113 -1 x7 -1 x22 >= -1 ;
-1 x101 +1 x6 >= 0 ;
-1 x101 +1 x23 >= 0 ;
+1 x101 -1 x6 -1 x23 >= -1 ;
-1 x89 +1 x5 >= 0 ;
-1 x89 +1 x24 >= 0 ;
+1 x89 -1 x5 -1 x24 >= -1 ;
-1 x77 +1 x4 >= 0 ;
-1 x77 +1 x25 >= 0 ;
+1 x77 -1 x4 -1 x25 >= -1 ;
-1 x65 +1 x3 >= 0 ;
-1 x65 +1 x26 >= 0 ;
+1 x65 -1 x3 -1 x26 >= -1 ;
+2 x367 +1 x549 -1 x186 -1 x353 -1 x366 = 0 ;
+2 x354 +1 x536 -1 x174 -1 x340 -1 x549 = 0 ;
+2 x341 +1 x523 -1 x162 -1 x327 -1 x536 = 0 ;
+2 x328 +1 x510 -1 x150 -1 x314 -1 x523 = 0 ;
+2 x315 +1 x497 -1 x138 -1 x301 -1 x510 = 0 ;
+2 x302 +1 x484 -1 x126 -1 x288 -1 x497 = 0 ;
+2 x289 +1 x471 -1 x114 -1 x275 -1 x484 = 0 ;
+2 x276 +1 x458 -1 x102 -1 x262 -1 x471 = 0 ;
+2 x263 +1 x445 -1 x90 -1 x249 -1 x458 = 0 ;
+2 x250 +1 x432 -1 x78 -1 x236 -1 x445 = 0 ;
+1 x432 -1 x575 = 0 ;
-1 x186 +1 x13 >= 0 ;
-1 x186 +1 x17 >= 0 ;
+1 x186 -1 x13 -1 x17 >= -1 ;
-1 x174 +1 x12 >= 0 ;
-1 x174 +1 x18 >= 0 ;
+1 x174 -1 x12 -1 x18 >= -1 ;
-1 x162 +1 x11 >= 0 ;
-1 x162 +1 x19 >= 0 ;
+1 x162 -1 x11 -1 x19 >= -1 ;
-1 x150 +1 x10 >= 0 ;
-1 x150 +1 x20 >= 0 ;
+1 x150 -1 x10 -1 x20 >= -1 ;
-1 x138 +1 x9 >= 0 ;
-1 x138 +1 x21 >= 0 ;
+1 x138 -1 x9 -1 x21 >= -1 ;
-1 x126 +1 x8 >= 0 ;
-1 x126 +1 x22 >= 0 ;
+1 x126 -1 x8 -1 x22 >= -1 ;
-1 x114 +1 x7 >= 0 ;
-1 x114 +1 x23 >= 0 ;
+1 x114 -1 x7 -1 x23 >= -1 ;
-1 x102 +1 x6 >= 0 ;
-1 x102 +1 x24 >= 0 ;
+1 x102 -1 x6 -1 x24 >= -1 ;
-1 x90 +1 x5 >= 0 ;
-1 x90 +1 x25 >= 0 ;
+1 x90 -1 x5 -1 x25 >= -1 ;
-1 x78 +1 x4 >= 0 ;
-1 x78 +1 x26 >= 0 ;
+1 x78 -1 x4 -1 x26 >= -1 ;
+2 x368 +1 x550 -1 x187 -1 x354 -1 x367 = 0 ;
+2 x355 +1 x537 -1 x175 -1 x341 -1 x550 = 0 ;
+2 x342 +1 x524 -1 x163 -1 x328 -1 x537 = 0 ;
+2 x329 +1 x511 -1 x151 -1 x315 -1 x524 = 0 ;
+2 x316 +1 x498 -1 x139 -1 x302 -1 x511 = 0 ;
+2 x303 +1 x485 -1 x127 -1 x289 -1 x498 = 0 ;
+2 x290 +1 x472 -1 x115 -1 x276 -1 x485 = 0 ;
+2 x277 +1 x459 -1 x103 -1 x263 -1 x472 = 0 ;
+2 x264 +1 x446 -1 x91 -1 x250 -1 x459 = 0 ;
+1 x446 -1 x576 = 0 ;
-1 x187 +1 x13 >= 0 ;
-1 x187 +1 x18 >= 0 ;
+1 x187 -1 x13 -1 x18 >= -1 ;
-1 x175 +1 x12 >= 0 ;
-1 x175 +1 x19 >= 0 ;
+1 x175 -1 x12 -1 x19 >= -1 ;
-1 x163 +1 x11 >= 0 ;
-1 x163 +1 x20 >= 0 ;
+1 x163 -1 x11 -1 x20 >= -1 ;
-1 x151 +1 x10 >= 0 ;
-1 x151 +1 x21 >= 0 ;
+1 x151 -1 x10 -1 x21 >= -1 ;
-1 x139 +1 x9 >= 0 ;
-1 x139 +1 x22 >= 0 ;
+1 x139 -1 x9 -1 x22 >= -1 ;
-1 x127 +1 x8 >= 0 ;
-1 x127 +1 x23 >= 0 ;
+1 x127 -1 x8 -1 x23 >= -1 ;
-1 x115 +1 x7 >= 0 ;
-1 x115 +1 x24 >= 0 ;
+1 x115 -1 x7 -1 x24 >= -1 ;
-1 x103 +1 x6 >= 0 ;
-1 x103 +1 x25 >= 0 ;
+1 x103 -1 x6 -1 x25 >= -1 ;
-1 x91 +1 x5 >= 0 ;
-1 x91 +1 x26 >= 0 ;
+1 x91 -1 x5 -1 x26 >= -1 ;
+2 x369 +1 x551 -1 x188 -1 x355 -1 x368 = 0 ;
+2 x356 +1 x538 -1 x176 -1 x342 -1 x551 = 0 ;
+2 x343 +1 x525 -1 x164 -1 x329 -1 x538 = 0 ;
+2 x330 +1 x512 -1 x152 -1 x316 -1 x525 = 0 ;
+2 x317 +1 x499 -1 x140 -1 x303 -1 x512 = 0 ;
+2 x304 +1 x486 -1 x128 -1 x290 -1 x499 = 0 ;
+2 x291 +1 x473 -1 x116 -1 x277 -1 x486 = 0 ;
+2 x278 +1 x460 -1 x104 -1 x264 -1 x473 = 0 ;
+1 x460 -1 x577 = 0 ;
-1 x188 +1 x13 >= 0 ;
-1 x188 +1 x19 >= 0 ;
+1 x188 -1 x13 -1 x19 >= -1 ;
-1 x176 +1 x12 >= 0 ;
-1 x176 +1 x20 >= 0 ;
+1 x176 -1 x12 -1 x20 >= -1 ;
-1 x164 +1 x11 >= 0 ;
-1 x164 +1 x21 >= 0 ;
+1 x164 -1 x11 -1 x21 >= -1 ;
-1 x152 +1 x10 >= 0 ;
-1 x152 +1 x22 >= 0 ;
+1 x152 -1 x10 -1 x22 >= -1 ;
-1 x140 +1 x9 >= 0 ;
-1 x140 +1 x23 >= 0 ;
+1 x140 -1 x9 -1 x23 >= -1 ;
-1 x128 +1 x8 >= 0 ;
-1 x128 +1 x24 >= 0 ;
+1 x128 -1 x8 -1 x24 >= -1 ;
-1 x116 +1 x7 >= 0 ;
-1 x116 +1 x25 >= 0 ;
+1 x116 -1 x7 -1 x25 >= -1 ;
-1 x104 +1 x6 >= 0 ;
-1 x104 +1 x26 >= 0 ;
+1 x104 -1 x6 -1 x26 >= -1 ;
+2 x370 +1 x552 -1 x189 -1 x356 -1 x369 = 0 ;
+2 x357 +1 x539 -1 x177 -1 x343 -1 x552 = 0 ;
+2 x344 +1 x526 -1 x165 -1 x330 -1 x539 = 0 ;
+2 x331 +1 x513 -1 x153 -1 x317 -1 x526 = 0 ;
+2 x318 +1 x500 -1 x141 -1 x304 -1 x513 = 0 ;
+2 x305 +1 x487 -1 x129 -1 x291 -1 x500 = 0 ;
+2 x292 +1 x474 -1 x117 -1 x278 -1 x487 = 0 ;
+1 x474 -1 x578 = 0 ;
-1 x189 +1 x13 >= 0 ;
-1 x189 +1 x20 >= 0 ;
+1 x189 -1 x13 -1 x20 >= -1 ;
-1 x177 +1 x12 >= 0 ;
-1 x177 +1 x21 >= 0 ;
+1 x177 -1 x12 -1 x21 >= -1 ;
-1 x165 +1 x11 >= 0 ;
-1 x165 +1 x22 >= 0 ;
+1 x165 -1 x11 -1 x22 >= -1 ;
-1 x153 +1 x10 >= 0 ;
-1 x153 +1 x23 >= 0 ;
+1 x153 -1 x10 -1 x23 >= -1 ;
-1 x141 +1 x9 >= 0 ;
-1 x141 +1 x24 >= 0 ;
+1 x141 -1 x9 -1 x24 >= -1 ;
-1 x129 +1 x8 >= 0 ;
-1 x129 +1 x25 >= 0 ;
+1 x129 -1 x8 -1 x25 >= -1 ;
-1 x117 +1 x7 >= 0 ;
-1 x117 +1 x26 >= 0 ;
+1 x117 -1 x7 -1 x26 >= -1 ;
+2 x371 +1 x553 -1 x190 -1 x357 -1 x370 = 0 ;
+2 x358 +1 x540 -1 x178 -1 x344 -1 x553 = 0 ;
+2 x345 +1 x527 -1 x166 -1 x331 -1 x540 = 0 ;
+2 x332 +1 x514 -1 x154 -1 x318 -1 x527 = 0 ;
+2 x319 +1 x501 -1 x142 -1 x305 -1 x514 = 0 ;
+2 x306 +1 x488 -1 x130 -1 x292 -1 x501 = 0 ;
+1 x488 -1 x579 = 0 ;
-1 x190 +1 x13 >= 0 ;
-1 x190 +1 x21 >= 0 ;
+1 x190 -1 x13 -1 x21 >= -1 ;
-1 x178 +1 x12 >= 0 ;
-1 x178 +1 x22 >= 0 ;
+1 x178 -1 x12 -1 x22 >= -1 ;
-1 x166 +1 x11 >= 0 ;
-1 x166 +1 x23 >= 0 ;
+1 x166 -1 x11 -1 x23 >= -1 ;
-1 x154 +1 x10 >= 0 ;
-1 x154 +1 x24 >= 0 ;
+1 x154 -1 x10 -1 x24 >= -1 ;
-1 x142 +1 x9 >= 0 ;
-1 x142 +1 x25 >= 0 ;
+1 x142 -1 x9 -1 x25 >= -1 ;
-1 x130 +1 x8 >= 0 ;
-1 x130 +1 x26 >= 0 ;
+1 x130 -1 x8 -1 x26 >= -1 ;
+2 x372 +1 x554 -1 x191 -1 x358 -1 x371 = 0 ;
+2 x359 +1 x541 -1 x179 -1 x345 -1 x554 = 0 ;
+2 x346 +1 x528 -1 x167 -1 x332 -1 x541 = 0 ;
+2 x333 +1 x515 -1 x155 -1 x319 -1 x528 = 0 ;
+2 x320 +1 x502 -1 x143 -1 x306 -1 x515 = 0 ;
+1 x502 -1 x580 = 0 ;
-1 x191 +1 x13 >= 0 ;
-1 x191 +1 x22 >= 0 ;
+1 x191 -1 x13 -1 x22 >= -1 ;
-1 x179 +1 x12 >= 0 ;
-1 x179 +1 x23 >= 0 ;
+1 x179 -1 x12 -1 x23 >= -1 ;
-1 x167 +1 x11 >= 0 ;
-1 x167 +1 x24 >= 0 ;
+1 x167 -1 x11 -1 x24 >= -1 ;
-1 x155 +1 x10 >= 0 ;
-1 x155 +1 x25 >= 0 ;
+1 x155 -1 x10 -1 x25 >= -1 ;
-1 x143 +1 x9 >= 0 ;
-1 x143 +1 x26 >= 0 ;
+1 x143 -1 x9 -1 x26 >= -1 ;
+2 x373 +1 x555 -1 x192 -1 x359 -1 x372 = 0 ;
+2 x360 +1 x542 -1 x180 -1 x346 -1 x555 = 0 ;
+2 x347 +1 x529 -1 x168 -1 x333 -1 x542 = 0 ;
+2 x334 +1 x516 -1 x156 -1 x320 -1 x529 = 0 ;
+1 x516 -1 x581 = 0 ;
-1 x192 +1 x13 >= 0 ;
-1 x192 +1 x23 >= 0 ;
+1 x192 -1 x13 -1 x23 >= -1 ;
-1 x180 +1 x12 >= 0 ;
-1 x180 +1 x24 >= 0 ;
+1 x180 -1 x12 -1 x24 >= -1 ;
-1 x168 +1 x11 >= 0 ;
-1 x168 +1 x25 >= 0 ;
+1 x168 -1 x11 -1 x25 >= -1 ;
-1 x156 +1 x10 >= 0 ;
-1 x156 +1 x26 >= 0 ;
+1 x156 -1 x10 -1 x26 >= -1 ;
+2 x374 +1 x556 -1 x193 -1 x360 -1 x373 = 0 ;
+2 x361 +1 x543 -1 x181 -1 x347 -1 x556 = 0 ;
+2 x348 +1 x530 -1 x169 -1 x334 -1 x543 = 0 ;
+1 x530 -1 x582 = 0 ;
-1 x193 +1 x13 >= 0 ;
-1 x193 +1 x24 >= 0 ;
+1 x193 -1 x13 -1 x24 >= -1 ;
-1 x181 +1 x12 >= 0 ;
-1 x181 +1 x25 >= 0 ;
+1 x181 -1 x12 -1 x25 >= -1 ;
-1 x169 +1 x11 >= 0 ;
-1 x169 +1 x26 >= 0 ;
+1 x169 -1 x11 -1 x26 >= -1 ;
+2 x375 +1 x557 -1 x194 -1 x361 -1 x374 = 0 ;
+2 x362 +1 x544 -1 x182 -1 x348 -1 x557 = 0 ;
+1 x544 -1 x583 = 0 ;
-1 x194 +1 x13 >= 0 ;
-1 x194 +1 x25 >= 0 ;
+1 x194 -1 x13 -1 x25 >= -1 ;
-1 x182 +1 x12 >= 0 ;
-1 x182 +1 x26 >= 0 ;
+1 x182 -1 x12 -1 x26 >= -1 ;
+2 x376 +1 x558 -1 x195 -1 x362 -1 x375 = 0 ;
+1 x558 -1 x584 = 0 ;
-1 x195 +1 x13 >= 0 ;
-1 x195 +1 x26 >= 0 ;
+1 x195 -1 x13 -1 x26 >= -1 ;
+1 x376 -1 x585 = 0 ;
